Tried aggregator 2 times.
MIP Presolve eliminated 10 rows and 6 columns.
MIP Presolve modified 60 coefficients.
Aggregator did 60 substitutions.
Reduced MIP has 215 rows, 191 columns, and 510 nonzeros.
Reduced MIP has 120 binaries, 11 generals, 0 SOSs, and 40 indicators.
Presolve time = 0.00 sec. (0.45 ticks)
Probing fixed 30 vars, tightened 40 bounds.
Probing time = 0.00 sec. (0.71 ticks)
Tried aggregator 3 times.
MIP Presolve eliminated 50 rows and 50 columns.
Aggregator did 50 substitutions.
Reduced MIP has 115 rows, 91 columns, and 290 nonzeros.
Reduced MIP has 60 binaries, 31 generals, 0 SOSs, and 20 indicators.
Presolve time = 0.00 sec. (0.60 ticks)
Probing time = 0.00 sec. (0.27 ticks)
Tried aggregator 1 time.
Reduced MIP has 115 rows, 91 columns, and 290 nonzeros.
Reduced MIP has 60 binaries, 31 generals, 0 SOSs, and 20 indicators.
Presolve time = 0.00 sec. (0.14 ticks)
Probing time = 0.00 sec. (0.26 ticks)
Clique table members: 277.
MIP emphasis: balance optimality and feasibility.
MIP search method: dynamic search.
Parallel mode: deterministic, using up to 4 threads.
Root relaxation solution time = 0.00 sec. (0.20 ticks)

        Nodes                                         Cuts/
   Node  Left     Objective  IInf  Best Integer    Best Bound    ItCnt     Gap

      0     0        6.0000    24                      6.0000       12         
      0     0        6.0000    33                     Cuts: 7       28         
      0     0        6.0000    25                    Cuts: 16       46         
      0     0        6.0000    25                    Cuts: 20       56         
*     0+    0                            9.0000        6.0000       56   33.33%
      0     0        cutoff              9.0000        9.0000       56    0.00%
Elapsed time = 0.04 sec. (9.20 ticks, tree = 0.00 MB, solutions = 1)

Clique cuts applied:  2
Cover cuts applied:  1
Implied bound cuts applied:  10
Zero-half cuts applied:  3
Gomory fractional cuts applied:  10

Root node processing (before b&c):
  Real time             =    0.04 sec. (9.21 ticks)
Parallel b&c, 4 threads:
  Real time             =    0.00 sec. (0.00 ticks)
  Sync time (average)   =    0.00 sec.
  Wait time (average)   =    0.00 sec.
                          ------------
Total (root+branch&cut) =    0.04 sec. (9.21 ticks)
